language ESSENCE' 1.0
letting values be [[1, 7, 3, 0, 0, 8, 5, 0, 0], [0, 4, 9, 0, 1, 3, 2, 0, 8], [0, 0, 2, 4, 0, 7, 0, 3, 0], [0, 0, 0, 1, 0, 0, 0, 9, 7], [4, 1, 0, 0, 0, 0, 6, 0, 3], [3, 9, 0, 6, 7, 5, 0, 1, 0], [7, 6, 4, 0, 0, 0, 0, 8, 5], [0, 3, 1, 8, 5, 9, 7, 6, 0], [9, 8, 0, 0, 4, 6, 0, 2, 1]]